NAME : traveling-santa-2018-prime-paths.31306.tour
COMMENT : Length = 31306
COMMENT : Found by LKH [Keld Helsgaun] Sun Jun 12 20:00:38 2022
TYPE : TOUR
DIMENSION : 100
TOUR_SECTION
1
2
18
36
10
72
100
23
13
28
32
7
86
59
43
66
82
63
42
53
51
6
11
17
27
99
89
62
14
90
58
52
39
74
33
65
35
88
94
85
21
79
47
70
22
31
3
83
67
76
91
81
34
5
84
97
87
30
77
8
16
55
80
15
56
75
19
49
9
71
25
60
50
61
41
73
20
69
54
96
68
64
37
24
92
45
98
93
78
57
44
12
48
38
40
29
95
4
46
26
-1
EOF
